
  32    4
  10   10   10   10

   0   0   0   0   0  12 2 4 6 7 11 25 26 27 28 29 30 31 
   4  10  10  10  10   7 24 23 16 14 13 10 3 
   6  10  10  10  10   6 20 19 18 17 15 5 
   5  10  10  10  10   3 22 16 13 
   3  10  10  10  10   1 8 
  10  10  10  10  10   2 21 13 
   5  10  10  10  10   2 14 13 
   2  10  10  10  10   1 9 
   3  10  10  10  10   1 12 
   4  10  10  10  10   1 15 
   9  10  10  10  10   1 14 
   7  10  10  10  10   1 32
   1  10  10  10  10   1 32
   9  10  10  10  10   1 32
   2  10  10  10  10   1 32
   9  10  10  10  10   1 32
   4  10  10  10  10   1 32
   4  10  10  10  10   1 32
   5  10  10  10  10   1 32
   9  10  10  10  10   1 32
   1  10  10  10  10   1 32
   7  10  10  10  10   1 32
   4  10  10  10  10   1 32
  10  10  10  10  10   1 32
   5  10  10  10  10   1 32
   7  10  10  10  10   1 32
   5  10  10  10  10   1 32
   6  10  10  10  10   1 32
  10  10  10  10  10   1 32
   8  10  10  10  10   1 32
   5  10  10  10  10   1 32
   0   0   0   0   0   0 
